
******************************************************************************
This program contains Ipopt, a library for large-scale nonlinear optimization.
 Ipopt is released as open source code under the Eclipse Public License (EPL).
         For more information visit http://projects.coin-or.org/Ipopt

This version of Ipopt was compiled from source code available at
    https://github.com/IDAES/Ipopt as part of the Institute for the Design of
    Advanced Energy Systems Process Systems Engineering Framework (IDAES PSE
    Framework) Copyright (c) 2018-2019. See https://github.com/IDAES/idaes-pse.

This version of Ipopt was compiled using HSL, a collection of Fortran codes
    for large-scale scientific computation.  All technical papers, sales and
    publicity material resulting from use of the HSL codes within IPOPT must
    contain the following acknowledgement:
        HSL, a collection of Fortran codes for large-scale scientific
        computation. See http://www.hsl.rl.ac.uk.
******************************************************************************

This is Ipopt version 3.13.2, running with linear solver ma27.

Number of nonzeros in equality constraint Jacobian...:      914
Number of nonzeros in inequality constraint Jacobian.:        0
Number of nonzeros in Lagrangian Hessian.............:      918

Total number of variables............................:      378
                     variables with only lower bounds:      108
                variables with lower and upper bounds:      216
                     variables with only upper bounds:        0
Total number of equality constraints.................:      376
Total number of inequality constraints...............:        0
        inequality constraints with only lower bounds:        0
   inequality constraints with lower and upper bounds:        0
        inequality constraints with only upper bounds:        0

iter    objective    inf_pr   inf_du lg(mu)  ||d||  lg(rg) alpha_du alpha_pr  ls
   0  0.0000000e+00 3.39e-01 7.55e-15  -1.0 0.00e+00    -  0.00e+00 0.00e+00   0
   1  6.2997538e-01 4.94e-03 1.51e+03  -1.0 7.34e+04    -  6.55e-01 9.90e-01h  1
   2  6.6416484e-01 4.96e-05 4.38e+00  -1.0 3.28e+03    -  9.86e-01 9.90e-01h  1
   3  6.6438054e-01 4.99e-07 2.91e-01  -1.0 9.36e+01    -  9.90e-01 9.90e-01h  1
   4  6.5945351e-01 1.42e-07 2.26e+00  -1.0 5.12e+03    -  9.90e-01 9.90e-01H  1
   5  6.5941080e-01 1.42e-07 1.97e+08  -1.7 4.00e+03    -  9.90e-01 3.87e-03h  9
   6  6.5936786e-01 1.41e-07 3.95e+08  -1.7 4.03e+03    -  9.91e-01 3.87e-03h  9
   7  6.5932521e-01 1.41e-07 5.94e+08  -1.7 4.01e+03    -  1.00e+00 3.87e-03h  9
   8  6.5928287e-01 1.40e-07 7.93e+08  -1.7 4.00e+03    -  1.00e+00 3.87e-03h  9
   9  6.5924082e-01 1.40e-07 9.93e+08  -1.7 3.98e+03    -  1.00e+00 3.87e-03h  9
iter    objective    inf_pr   inf_du lg(mu)  ||d||  lg(rg) alpha_du alpha_pr  ls
  10  6.5919907e-01 1.40e-07 1.19e+09  -1.7 3.97e+03    -  1.00e+00 3.87e-03h  9
  11  6.5915762e-01 1.39e-07 1.39e+09  -1.7 3.95e+03    -  1.00e+00 3.87e-03h  9
  12  6.5911646e-01 1.39e-07 1.59e+09  -1.7 3.94e+03    -  1.00e+00 3.87e-03h  9
  13  6.5907559e-01 1.38e-07 1.79e+09  -1.7 3.92e+03    -  1.00e+00 3.87e-03h  9
  14  6.5903501e-01 1.38e-07 1.99e+09  -1.7 3.91e+03    -  1.00e+00 3.87e-03h  9
  15  6.5295528e-01 8.33e-06 2.20e+07  -1.7 3.89e+03    -  1.00e+00 9.90e-01w  1
  16  6.5292796e-01 8.41e-08 2.08e+08  -1.7 3.82e+01    -  1.00e+00 9.90e-01w  1
  17  6.5292769e-01 8.41e-10 2.08e+10  -1.7 3.82e-01    -  1.00e+00 9.90e-01h  1
In iteration 17, 27 Slacks too small, adjusting variable bounds
  18  6.5292769e-01 8.40e-12 2.08e+12  -1.7 3.82e-03    -  1.00e+00 9.90e-01h  1
  19  6.5292769e-01 1.76e-13 2.44e-04  -1.7 3.82e-05    -  1.00e+00 1.00e+00h  1
iter    objective    inf_pr   inf_du lg(mu)  ||d||  lg(rg) alpha_du alpha_pr  ls
  20  6.5266373e-01 9.31e-13 2.86e+08  -9.0 9.83e+02    -  1.00e+00 1.00e+00F  1
  21  6.5266373e-01 1.55e-12 3.46e-08  -9.0 1.03e+00    -  1.00e+00 1.00e+00h  1

Number of Iterations....: 21

                                   (scaled)                 (unscaled)
Objective...............:   6.5266373024129232e-01    6.5266373024129232e-01
Dual infeasibility......:   3.4604454413056374e-08    3.4604454413056374e-08
Constraint violation....:   1.5463186286979180e-12    1.5463186286979180e-12
Complementarity.........:   9.6474731655000364e-10    9.6474731655000364e-10
Overall NLP error.......:   6.1425307617266456e-10    3.4604454413056374e-08


Number of objective function evaluations             = 125
Number of objective gradient evaluations             = 22
Number of equality constraint evaluations            = 125
Number of inequality constraint evaluations          = 0
Number of equality constraint Jacobian evaluations   = 22
Number of inequality constraint Jacobian evaluations = 0
Number of Lagrangian Hessian evaluations             = 21
Total CPU secs in IPOPT (w/o function evaluations)   =      0.031
Total CPU secs in NLP function evaluations           =      0.706

EXIT: Optimal Solution Found.
